c Generated map
c Size: 10 * 10, weights in range: 1 to 10, walls: True, with ratio 0.1
c dim 2 of 6
c
p sp 100 145
c graph contains 100 nodes and 145 arcs
c
a 1 11 1
a 11 1 1
a 1 2 5
a 2 1 5
a 2 12 1
a 12 2 1
a 2 3 10
a 3 2 10
a 3 13 5
a 13 3 5
a 3 4 1
a 4 3 1
a 4 14 6
a 14 4 6
a 4 5 5
a 5 4 5
a 5 15 2
a 15 5 2
a 7 17 3
a 17 7 3
a 7 8 3
a 8 7 3
a 8 18 8
a 18 8 8
a 8 9 6
a 9 8 6
a 9 19 7
a 19 9 7
a 9 10 2
a 10 9 2
a 10 20 3
a 20 10 3
a 11 21 6
a 21 11 6
a 11 12 7
a 12 11 7
a 12 22 4
a 22 12 4
a 12 13 3
a 13 12 3
a 13 23 2
a 23 13 2
a 13 14 1
a 14 13 1
a 14 24 1
a 24 14 1
a 14 15 9
a 15 14 9
a 15 25 4
a 25 15 4
a 15 16 7
a 16 15 7
a 16 26 10
a 26 16 10
a 16 17 2
a 17 16 2
a 17 18 8
a 18 17 8
a 18 28 10
a 28 18 10
a 18 19 1
a 19 18 1
a 19 29 7
a 29 19 7
a 19 20 4
a 20 19 4
a 20 30 7
a 30 20 7
a 21 31 9
a 31 21 9
a 21 22 5
a 22 21 5
a 22 23 5
a 23 22 5
a 23 33 4
a 33 23 4
a 23 24 4
a 24 23 4
a 24 34 4
a 34 24 4
a 24 25 1
a 25 24 1
a 25 35 9
a 35 25 9
a 25 26 2
a 26 25 2
a 26 36 10
a 36 26 10
a 28 38 4
a 38 28 4
a 28 29 7
a 29 28 7
a 29 30 9
a 30 29 9
a 30 40 4
a 40 30 4
a 31 41 6
a 41 31 6
a 33 34 1
a 34 33 1
a 34 44 6
a 44 34 6
a 34 35 10
a 35 34 10
a 35 45 1
a 45 35 1
a 35 36 9
a 36 35 9
a 36 46 7
a 46 36 7
a 36 37 3
a 37 36 3
a 37 47 5
a 47 37 5
a 37 38 1
a 38 37 1
a 38 48 4
a 48 38 4
a 40 50 3
a 50 40 3
a 41 51 1
a 51 41 1
a 41 42 5
a 42 41 5
a 42 52 10
a 52 42 10
a 44 54 4
a 54 44 4
a 44 45 5
a 45 44 5
a 45 55 4
a 55 45 4
a 45 46 7
a 46 45 7
a 46 56 10
a 56 46 10
a 46 47 9
a 47 46 9
a 47 57 6
a 57 47 6
a 47 48 7
a 48 47 7
a 48 58 4
a 58 48 4
a 51 61 9
a 61 51 9
a 51 52 10
a 52 51 10
a 52 62 1
a 62 52 1
a 52 53 1
a 53 52 1
a 53 63 7
a 63 53 7
a 53 54 7
a 54 53 7
a 54 64 6
a 64 54 6
a 54 55 8
a 55 54 8
a 55 65 5
a 65 55 5
a 55 56 5
a 56 55 5
a 56 66 7
a 66 56 7
a 56 57 1
a 57 56 1
a 57 67 9
a 67 57 9
a 57 58 4
a 58 57 4
a 58 68 8
a 68 58 8
a 58 59 4
a 59 58 4
a 61 71 9
a 71 61 9
a 61 62 9
a 62 61 9
a 62 72 3
a 72 62 3
a 62 63 8
a 63 62 8
a 63 73 8
a 73 63 8
a 63 64 10
a 64 63 10
a 64 74 4
a 74 64 4
a 64 65 9
a 65 64 9
a 65 75 1
a 75 65 1
a 65 66 10
a 66 65 10
a 66 76 8
a 76 66 8
a 66 67 4
a 67 66 4
a 67 77 10
a 77 67 10
a 67 68 6
a 68 67 6
a 68 78 3
a 78 68 3
a 71 81 2
a 81 71 2
a 71 72 4
a 72 71 4
a 72 82 10
a 82 72 10
a 72 73 3
a 73 72 3
a 73 83 5
a 83 73 5
a 73 74 5
a 74 73 5
a 74 84 2
a 84 74 2
a 74 75 1
a 75 74 1
a 75 85 6
a 85 75 6
a 75 76 9
a 76 75 9
a 76 86 4
a 86 76 4
a 76 77 4
a 77 76 4
a 77 87 7
a 87 77 7
a 77 78 3
a 78 77 3
a 78 88 6
a 88 78 6
a 78 79 10
a 79 78 10
a 79 89 3
a 89 79 3
a 81 91 10
a 91 81 10
a 81 82 8
a 82 81 8
a 82 92 10
a 92 82 10
a 82 83 2
a 83 82 2
a 83 93 10
a 93 83 10
a 83 84 3
a 84 83 3
a 84 94 5
a 94 84 5
a 84 85 1
a 85 84 1
a 85 86 2
a 86 85 2
a 86 96 10
a 96 86 10
a 86 87 3
a 87 86 3
a 87 97 10
a 97 87 10
a 87 88 8
a 88 87 8
a 88 98 6
a 98 88 6
a 88 89 9
a 89 88 9
a 89 99 8
a 99 89 8
a 89 90 8
a 90 89 8
a 90 100 9
a 100 90 9
a 91 92 5
a 92 91 5
a 92 93 3
a 93 92 3
a 93 94 10
a 94 93 10
a 96 97 9
a 97 96 9
a 97 98 1
a 98 97 1
a 98 99 4
a 99 98 4
a 99 100 1
a 100 99 1
